NAME: tsp35_11
COMMENT: 35-tsp problem (Padberg/Rinaldi)
TYPE: TSP
DIMENSION: 35
EDGE_WEIGHT_TYPE : EUC_2D
NODE_COORD_SECTION
1 30 29
2 11 8
3 38 11
4 12 16
5 20 12
6 8 12
7 30 37
8 16 27
9 1 14
10 0 26
11 32 0
12 27 14
13 20 36
14 38 33
15 20 11
16 29 29
17 24 15
18 17 40
19 37 22
20 13 35
21 3 7
22 19 3
23 1 36
24 39 18
25 6 23
26 17 4
27 26 23
28 24 8
29 20 1
30 14 11
31 19 11
32 2 14
33 34 29
34 26 11
35 28 24
